solution status: gap limit reached
objective value:                          74103.40119
y#5                                                 1 	(obj:5700)
y#9                                                 1 	(obj:5700)
y#11                                                1 	(obj:5700)
y#13                                                1 	(obj:5700)
y#20                                                1 	(obj:5700)
y#26                                                1 	(obj:5700)
y#27                                                1 	(obj:5700)
y#34                                                1 	(obj:5700)
y#35                                                1 	(obj:5700)
y#36                                                1 	(obj:5700)
y#37                                                1 	(obj:5700)
y#42                                                1 	(obj:5700)
y#55                                                1 	(obj:5700)
x#1#35                                              1 	(obj:0.01632)
x#2#9                                               1 	(obj:0.01972)
x#3#37                                              1 	(obj:0.02125)
x#4#55                                              1 	(obj:0.02329)
x#5#27                                              1 	(obj:0.04998)
x#6#34                                              1 	(obj:0.00272)
x#7#9                                               1 	(obj:0.00986)
x#8#42                                              1 	(obj:0.01768)
x#9#36                                              1 	(obj:0.03808)
x#10#9                                              1 	(obj:0.04216)
x#11#42                                             1 	(obj:0.00221)
x#12#26                                             1 	(obj:0.03009)
x#13#55                                             1 	(obj:0.00901)
x#14#5                                              1 	(obj:0.02584)
x#15#34                                             1 	(obj:0.00952)
x#16#35                                             1 	(obj:0.01462)
x#17#37                                             1 	(obj:0.03332)
x#18#9                                              1 	(obj:0.01989)
x#19#55                                             1 	(obj:0.03502)
x#20#55                                             1 	(obj:0.03859)
x#21#20                                             1 	(obj:0.01887)
x#22#11                                             1 	(obj:0.01394)
x#23#26                                             1 	(obj:0.01241)
x#24#27                                             1 	(obj:0.01836)
x#25#37                                             1 	(obj:0.02312)
x#26#27                                             1 	(obj:0.0068)
x#27#11                                             1 	(obj:0.01972)
x#28#13                                             1 	(obj:0.03672)
x#29#36                                             1 	(obj:0.03655)
x#30#13                                             1 	(obj:0.03774)
x#31#37                                             1 	(obj:0.01632)
x#32#26                                             1 	(obj:0.0255)
x#33#34                                             1 	(obj:0.00595)
x#34#35                                             1 	(obj:0.04233)
x#35#11                                             1 	(obj:0.00935)
x#36#20                                             1 	(obj:0.02907)
x#37#13                                             1 	(obj:0.03468)
x#38#42                                             1 	(obj:0.0102)
x#39#36                                             1 	(obj:0.03808)
x#40#36                                             1 	(obj:0.00629)
x#41#5                                              1 	(obj:0.00425)
x#42#42                                             1 	(obj:0.01088)
x#43#55                                             1 	(obj:0.00867)
x#44#37                                             1 	(obj:0.02006)
x#45#13                                             1 	(obj:0.0221)
x#46#11                                             1 	(obj:0.02108)
x#47#34                                             1 	(obj:0.0255)
x#48#34                                             1 	(obj:0.04539)
x#49#11                                             1 	(obj:0.01496)
x#50#5                                              1 	(obj:0.01411)
x#51#9                                              1 	(obj:0.03315)
x#52#9                                              1 	(obj:0.00391)
x#53#9                                              1 	(obj:0.03587)
x#54#5                                              1 	(obj:0.03315)
x#55#55                                             1 	(obj:0.01615)
x#56#20                                             1 	(obj:0.00255)
x#57#26                                             1 	(obj:0.03893)
x#58#13                                             1 	(obj:0.01819)
x#59#9                                              1 	(obj:0.03519)
x#60#20                                             1 	(obj:0.02227)
x#61#27                                             1 	(obj:0.02108)
x#62#26                                             1 	(obj:0.03264)
x#63#42                                             1 	(obj:0.0136)
x#64#42                                             1 	(obj:0.03417)
x#65#11                                             1 	(obj:0.01428)
x#66#13                                             1 	(obj:0.01428)
x#67#20                                             1 	(obj:0.01666)
x#68#55                                             1 	(obj:0.02992)
x#69#26                                             1 	(obj:0.03536)
x#70#27                                             1 	(obj:0.01768)
x#71#11                                             1 	(obj:0.02465)
x#72#37                                             1 	(obj:0.01717)
x#73#20                                             1 	(obj:0.04063)
x#74#26                                             1 	(obj:0.01989)
x#75#5                                              1 	(obj:0.03553)
x#76#35                                             1 	(obj:0.02023)
x#77#34                                             1 	(obj:0.02482)
x#78#5                                              1 	(obj:0.07769)
x#79#27                                             1 	(obj:0.01462)
x#80#26                                             1 	(obj:0.01955)
x#81#35                                             1 	(obj:0.0255)
x#82#35                                             1 	(obj:0.01887)
x#83#36                                             1 	(obj:0.01649)
x#84#27                                             1 	(obj:0.01581)
x#85#36                                             1 	(obj:0.0119)
x#86#13                                             1 	(obj:0.02856)
x#87#55                                             1 	(obj:0.00799)
x#88#5                                              1 	(obj:0.02193)
x#89#26                                             1 	(obj:0.01717)
x#90#5                                              1 	(obj:0.05117)
x#91#26                                             1 	(obj:0.01972)
x#92#35                                             1 	(obj:0.03791)
x#93#42                                             1 	(obj:0.06256)
x#94#37                                             1 	(obj:0.01445)
x#95#36                                             1 	(obj:0.04845)
x#96#13                                             1 	(obj:0.01666)
x#97#9                                              1 	(obj:0.02244)
x#98#27                                             1 	(obj:0.00799)
x#99#20                                             1 	(obj:0.00765)
x#100#27                                            1 	(obj:0.02074)
x#101#34                                            1 	(obj:0.04692)
x#102#34                                            1 	(obj:0.01343)
x#103#42                                            1 	(obj:0.01054)
x#104#13                                            1 	(obj:0.02924)
x#105#42                                            1 	(obj:0.02329)
x#106#55                                            1 	(obj:0.00782)
x#107#20                                            1 	(obj:0.0289)
x#108#13                                            1 	(obj:0.02669)
x#109#5                                             1 	(obj:0.00527)
x#110#35                                            1 	(obj:0.01343)
x#111#26                                            1 	(obj:0.02244)
x#112#36                                            1 	(obj:0.01938)
x#113#36                                            1 	(obj:0.02057)
x#114#11                                            1 	(obj:0.02346)
x#115#11                                            1 	(obj:0.03757)
x#116#9                                             1 	(obj:0.02244)
x#117#36                                            1 	(obj:0.01785)
x#118#11                                            1 	(obj:0.01411)
x#119#11                                            1 	(obj:0.01377)
x#120#5                                             1 	(obj:0.01853)
x#121#42                                            1 	(obj:0.02856)
x#122#36                                            1 	(obj:0.00969)
x#123#9                                             1 	(obj:0.02159)
x#124#20                                            1 	(obj:0.01666)
x#125#36                                            1 	(obj:0.00901)
x#126#26                                            1 	(obj:0.01496)
x#127#35                                            1 	(obj:0.02465)
x#128#35                                            1 	(obj:0.00663)
x#129#9                                             1 	(obj:0.02669)
x#130#27                                            1 	(obj:0.01241)
x#131#37                                            1 	(obj:0.02584)
x#132#37                                            1 	(obj:0.02686)
x#133#42                                            1 	(obj:0.01037)
x#134#34                                            1 	(obj:0.01904)
x#135#35                                            1 	(obj:0.01309)
x#136#55                                            1 	(obj:0.0187)
x#137#27                                            1 	(obj:0.00833)
x#138#55                                            1 	(obj:0.04403)
x#139#37                                            1 	(obj:0.01632)
x#140#13                                            1 	(obj:0.02482)
x#141#34                                            1 	(obj:0.0374)
x#142#11                                            1 	(obj:0.02193)
x#143#5                                             1 	(obj:0.03162)
x#144#37                                            1 	(obj:0.01632)
x#145#5                                             1 	(obj:0.05457)
x#146#20                                            1 	(obj:0.01632)
x#147#34                                            1 	(obj:0.01479)
x#148#37                                            1 	(obj:0.02125)
x#149#20                                            1 	(obj:0.00935)
x#150#27                                            1 	(obj:0.0578)
